682303
680780
680780
680780
680780
678032
678032
678032
678032
678032
677305
677305
677305
677305
667750
667750
667750
667750
667750
667750
667750
667750
666728
666728
666728
666728
666481
666481
666481
666481
665065
661961
659848
659848
659848
655325
655325
655325
655325
655325
655325
655325
655311
655311
655311
655311
655311
655311
655311
655311
655311
655311
655311
655311
655311
655221
655311
655311
655311
655096
655096
654846
650377
650377
650377
650377
650377
650377
650377
650377
650377
650377
650377
650377
650377
650377
650377
650377
650377
650377
650377
650377
650377
650377
650377
650377
648778
646145
646145
646145
646145
646145
646145
646145
646145
644076
644076
644076
644076
644076
